p cnf 25 210
1 2 3 4 5 0
1 2 3 -4 6 0
1 2 -3 4 5 0
1 2 -3 -4 8 0
1 -2 3 4 6 0
1 -2 3 -4 7 0
1 -2 -3 4 5 0
1 -2 -3 -4 6 0
-1 2 3 4 6 0
-1 2 3 -4 6 0
-1 2 -3 4 5 0
-1 2 -3 -4 6 0
-1 -2 3 4 6 0
-1 -2 3 -4 5 0
9 10 11 12 1 2 3 4 13 0
9 10 11 12 1 2 3 -4 14 0
9 10 11 12 1 2 -3 4 15 0
9 10 11 12 1 2 -3 -4 16 0
9 10 11 12 1 -2 3 4 17 0
9 10 11 12 1 -2 3 -4 17 0
9 10 11 12 1 -2 -3 4 18 0
9 10 11 12 1 -2 -3 -4 17 0
9 10 11 12 -1 2 3 4 17 0
9 10 11 12 -1 2 3 -4 17 0
9 10 11 12 -1 2 -3 4 17 0
9 10 11 12 -1 2 -3 -4 17 0
9 10 11 12 -1 -2 3 4 17 0
9 10 11 12 -1 -2 3 -4 17 0
9 10 11 -12 1 2 3 4 19 0
9 10 11 -12 1 2 3 -4 20 0
9 10 11 -12 1 2 -3 4 15 0
9 10 11 -12 1 2 -3 -4 21 0
9 10 11 -12 1 -2 3 4 17 0
9 10 11 -12 1 -2 3 -4 22 0
9 10 11 -12 1 -2 -3 4 18 0
9 10 11 -12 1 -2 -3 -4 17 0
9 10 11 -12 -1 2 3 4 17 0
9 10 11 -12 -1 2 3 -4 17 0
9 10 11 -12 -1 2 -3 4 17 0
9 10 11 -12 -1 2 -3 -4 17 0
9 10 11 -12 -1 -2 3 4 17 0
9 10 11 -12 -1 -2 3 -4 17 0
9 10 -11 12 1 2 3 4 17 0
9 10 -11 12 1 2 3 -4 14 0
9 10 -11 12 1 2 -3 4 18 0
9 10 -11 12 1 2 -3 -4 21 0
9 10 -11 12 1 -2 3 4 17 0
9 10 -11 12 1 -2 3 -4 22 0
9 10 -11 12 1 -2 -3 4 17 0
9 10 -11 12 1 -2 -3 -4 25 0
9 10 -11 12 -1 2 3 4 17 0
9 10 -11 12 -1 2 3 -4 17 0
9 10 -11 12 -1 2 -3 4 17 0
9 10 -11 12 -1 2 -3 -4 17 0
9 10 -11 12 -1 -2 3 4 17 0
9 10 -11 12 -1 -2 3 -4 17 0
9 10 -11 -12 1 2 3 4 18 0
9 10 -11 -12 1 2 3 -4 20 0
9 10 -11 -12 1 2 -3 4 18 0
9 10 -11 -12 1 2 -3 -4 17 0
9 10 -11 -12 1 -2 3 4 25 0
9 10 -11 -12 1 -2 3 -4 22 0
9 10 -11 -12 1 -2 -3 4 15 0
9 10 -11 -12 1 -2 -3 -4 17 0
9 10 -11 -12 -1 2 3 4 17 0
9 10 -11 -12 -1 2 3 -4 20 0
9 10 -11 -12 -1 2 -3 4 17 0
9 10 -11 -12 -1 2 -3 -4 20 0
9 10 -11 -12 -1 -2 3 4 17 0
9 10 -11 -12 -1 -2 3 -4 17 0
9 -10 11 12 1 2 3 4 15 0
9 -10 11 12 1 2 3 -4 20 0
9 -10 11 12 1 2 -3 4 17 0
9 -10 11 12 1 2 -3 -4 16 0
9 -10 11 12 1 -2 3 4 17 0
9 -10 11 12 1 -2 3 -4 17 0
9 -10 11 12 1 -2 -3 4 18 0
9 -10 11 12 1 -2 -3 -4 17 0
9 -10 11 12 -1 2 3 4 20 0
9 -10 11 12 -1 2 3 -4 17 0
9 -10 11 12 -1 2 -3 4 17 0
9 -10 11 12 -1 2 -3 -4 20 0
9 -10 11 12 -1 -2 3 4 17 0
9 -10 11 12 -1 -2 3 -4 17 0
9 -10 11 -12 1 2 3 4 17 0
9 -10 11 -12 1 2 3 -4 20 0
9 -10 11 -12 1 2 -3 4 18 0
9 -10 11 -12 1 2 -3 -4 24 0
9 -10 11 -12 1 -2 3 4 17 0
9 -10 11 -12 1 -2 3 -4 17 0
9 -10 11 -12 1 -2 -3 4 18 0
9 -10 11 -12 1 -2 -3 -4 17 0
9 -10 11 -12 -1 2 3 4 17 0
9 -10 11 -12 -1 2 3 -4 14 0
9 -10 11 -12 -1 2 -3 4 17 0
9 -10 11 -12 -1 2 -3 -4 17 0
9 -10 11 -12 -1 -2 3 4 20 0
9 -10 11 -12 -1 -2 3 -4 17 0
9 -10 -11 12 1 2 3 4 17 0
9 -10 -11 12 1 2 3 -4 17 0
9 -10 -11 12 1 2 -3 4 17 0
9 -10 -11 12 1 2 -3 -4 21 0
9 -10 -11 12 1 -2 3 4 25 0
9 -10 -11 12 1 -2 3 -4 17 0
9 -10 -11 12 1 -2 -3 4 18 0
9 -10 -11 12 1 -2 -3 -4 20 0
9 -10 -11 12 -1 2 3 4 14 0
9 -10 -11 12 -1 2 3 -4 20 0
9 -10 -11 12 -1 2 -3 4 17 0
9 -10 -11 12 -1 2 -3 -4 20 0
9 -10 -11 12 -1 -2 3 4 17 0
9 -10 -11 12 -1 -2 3 -4 17 0
9 -10 -11 -12 1 2 3 4 17 0
9 -10 -11 -12 1 2 3 -4 20 0
9 -10 -11 -12 1 2 -3 4 17 0
9 -10 -11 -12 1 2 -3 -4 17 0
9 -10 -11 -12 1 -2 3 4 25 0
9 -10 -11 -12 1 -2 3 -4 17 0
9 -10 -11 -12 1 -2 -3 4 18 0
9 -10 -11 -12 1 -2 -3 -4 20 0
9 -10 -11 -12 -1 2 3 4 17 0
9 -10 -11 -12 -1 2 3 -4 14 0
9 -10 -11 -12 -1 2 -3 4 17 0
9 -10 -11 -12 -1 2 -3 -4 17 0
9 -10 -11 -12 -1 -2 3 4 20 0
9 -10 -11 -12 -1 -2 3 -4 17 0
-9 10 11 12 1 2 3 4 17 0
-9 10 11 12 1 2 3 -4 17 0
-9 10 11 12 1 2 -3 4 15 0
-9 10 11 12 1 2 -3 -4 21 0
-9 10 11 12 1 -2 3 4 17 0
-9 10 11 12 1 -2 3 -4 22 0
-9 10 11 12 1 -2 -3 4 18 0
-9 10 11 12 1 -2 -3 -4 17 0
-9 10 11 12 -1 2 3 4 17 0
-9 10 11 12 -1 2 3 -4 17 0
-9 10 11 12 -1 2 -3 4 13 0
-9 10 11 12 -1 2 -3 -4 17 0
-9 10 11 12 -1 -2 3 4 20 0
-9 10 11 12 -1 -2 3 -4 18 0
-9 10 11 -12 1 2 3 4 17 0
-9 10 11 -12 1 2 3 -4 17 0
-9 10 11 -12 1 2 -3 4 17 0
-9 10 11 -12 1 2 -3 -4 17 0
-9 10 11 -12 1 -2 3 4 17 0
-9 10 11 -12 1 -2 3 -4 23 0
-9 10 11 -12 1 -2 -3 4 17 0
-9 10 11 -12 1 -2 -3 -4 14 0
-9 10 11 -12 -1 2 3 4 20 0
-9 10 11 -12 -1 2 3 -4 20 0
-9 10 11 -12 -1 2 -3 4 17 0
-9 10 11 -12 -1 2 -3 -4 17 0
-9 10 11 -12 -1 -2 3 4 17 0
-9 10 11 -12 -1 -2 3 -4 15 0
-9 10 -11 12 1 2 3 4 17 0
-9 10 -11 12 1 2 3 -4 17 0
-9 10 -11 12 1 2 -3 4 17 0
-9 10 -11 12 1 2 -3 -4 17 0
-9 10 -11 12 1 -2 3 4 17 0
-9 10 -11 12 1 -2 3 -4 17 0
-9 10 -11 12 1 -2 -3 4 18 0
-9 10 -11 12 1 -2 -3 -4 20 0
-9 10 -11 12 -1 2 3 4 17 0
-9 10 -11 12 -1 2 3 -4 17 0
-9 10 -11 12 -1 2 -3 4 15 0
-9 10 -11 12 -1 2 -3 -4 14 0
-9 10 -11 12 -1 -2 3 4 14 0
-9 10 -11 12 -1 -2 3 -4 15 0
-9 10 -11 -12 1 2 3 4 17 0
-9 10 -11 -12 1 2 3 -4 17 0
-9 10 -11 -12 1 2 -3 4 17 0
-9 10 -11 -12 1 2 -3 -4 17 0
-9 10 -11 -12 1 -2 3 4 17 0
-9 10 -11 -12 1 -2 3 -4 22 0
-9 10 -11 -12 1 -2 -3 4 17 0
-9 10 -11 -12 1 -2 -3 -4 17 0
-9 10 -11 -12 -1 2 3 4 20 0
-9 10 -11 -12 -1 2 3 -4 20 0
-9 10 -11 -12 -1 2 -3 4 17 0
-9 10 -11 -12 -1 2 -3 -4 25 0
-9 10 -11 -12 -1 -2 3 4 25 0
-9 10 -11 -12 -1 -2 3 -4 17 0
-9 -10 11 12 1 2 3 4 17 0
-9 -10 11 12 1 2 3 -4 17 0
-9 -10 11 12 1 2 -3 4 17 0
-9 -10 11 12 1 2 -3 -4 17 0
-9 -10 11 12 1 -2 3 4 17 0
-9 -10 11 12 1 -2 3 -4 17 0
-9 -10 11 12 1 -2 -3 4 17 0
-9 -10 11 12 1 -2 -3 -4 17 0
-9 -10 11 12 -1 2 3 4 14 0
-9 -10 11 12 -1 2 3 -4 17 0
-9 -10 11 12 -1 2 -3 4 15 0
-9 -10 11 12 -1 2 -3 -4 20 0
-9 -10 11 12 -1 -2 3 4 20 0
-9 -10 11 12 -1 -2 3 -4 13 0
-9 -10 11 -12 1 2 3 4 17 0
-9 -10 11 -12 1 2 3 -4 17 0
-9 -10 11 -12 1 2 -3 4 18 0
-9 -10 11 -12 1 2 -3 -4 17 0
-9 -10 11 -12 1 -2 3 4 17 0
-9 -10 11 -12 1 -2 3 -4 17 0
-9 -10 11 -12 1 -2 -3 4 17 0
-9 -10 11 -12 1 -2 -3 -4 20 0
-9 -10 11 -12 -1 2 3 4 14 0
-9 -10 11 -12 -1 2 3 -4 20 0
-9 -10 11 -12 -1 2 -3 4 13 0
-9 -10 11 -12 -1 2 -3 -4 17 0
-9 -10 11 -12 -1 -2 3 4 17 0
-9 -10 11 -12 -1 -2 3 -4 15 0
